p tw 123 137
1 2
2 3
11 12
101 102
102 103
102 108
103 104
104 105
105 106
105 108
106 107
107 116
108 109
109 110
110 111
110 116
12 13
12 14
111 112
112 113
113 114
114 115
116 117
117 118
118 119
119 120
120 121
13 14
121 122
122 123
14 15
15 16
16 17
17 18
18 19
19 20
20 21
3 4
3 7
21 22
22 23
23 24
24 25
25 26
26 27
27 28
28 29
29 30
30 115
30 31
4 5
31 32
32 33
33 116
33 34
34 35
35 36
35 88
36 37
37 38
38 39
38 42
39 40
40 41
5 6
41 122
42 43
43 44
44 45
45 46
46 47
47 48
48 49
48 63
49 50
50 51
6 7
51 52
52 53
53 54
53 56
54 55
55 89
56 57
57 58
58 59
59 60
60 61
7 8
61 62
62 89
63 64
64 65
65 66
66 67
66 76
67 68
68 69
69 70
70 71
70 76
8 9
71 72
72 73
73 74
74 75
75 76
76 77
77 78
78 79
79 80
80 81
9 10
81 82
81 83
82 122
83 84
84 85
85 86
86 87
87 116
87 88
89 90
90 91
10 11
91 92
92 93
93 94
94 95
94 100
95 96
96 97
97 98
98 111
98 99
99 116
100 101
